letting n =  10
letting blocks =  [[1, 2], [1, 3], [1, 4], [1, 7], [1, 8], [1, 9], [2, 3], [2, 8], [2, 10], [3, 1], [3, 2], [3, 3], [3, 4], [3, 6], [3, 8], [4, 1], [4, 3], [4, 4], [4, 6], [4, 8], [4, 9], [5, 1], [5, 2], [5, 6], [5, 7], [5, 9], [6, 1], [6, 2], [6, 5], [6, 7], [6, 9], [6, 10], [7, 1], [7, 2], [7, 4], [7, 7], [7, 8], [7, 10], [8, 2], [8, 3], [8, 6], [8, 9], [9, 3], [9, 4], [9, 7], [9, 8], [9, 10], [10, 1], [10, 7], [10, 10]]
